(set-info :smt-lib-version 2.6)
(set-logic QF_FP)
(set-info :source |Random FP created by PyMPF|)
(set-info :license |https://www.gnu.org/licenses/gpl-3.0.html|)
(set-info :category random)
(set-info :status unsat)
(declare-const x Float32)
(assert (= x (fp #b1 #b00000000 #b01111001010010111011111)))
;; x should be Float32(0x803CA5DF [Rational(-3974623, 713623846352979940529142984724747568191373312), -0.000000])

(declare-const y Float32)
(assert (= y (_ +oo 8 24)))
;; y should be Float32(+oo)

(declare-const result Float32)
(assert (= result (fp.max x y)))
(assert (not (= result (_ +oo 8 24))))
(check-sat)
(exit)
